language ESSENCE' 1.0

letting fixed be 
[
    [5,2,9,4,1,0,7,0,3],
    [0,0,6,0,0,3,0,0,2],
    [0,0,3,2,0,0,0,0,0],
    [0,5,2,3,0,0,0,7,6],
    [6,3,7,0,5,0,2,0,0],
    [1,9,0,6,2,7,5,3,0],
    [3,0,0,0,6,9,4,2,0],
    [2,0,0,8,3,0,6,0,0],
    [9,6,0,7,4,2,3,0,5]
]